(set-info :status unknown)
(declare-fun %A () (_ BitVec 12))
(declare-fun %B () (_ BitVec 12))
(declare-fun u_%Y () (_ BitVec 8))
(declare-fun |ana_isPowerOf2(%A)| () (_ BitVec 1))
(declare-fun %X () (_ BitVec 12))
(assert
 (let (($x10211 (= |ana_isPowerOf2(%A)| (_ bv1 1))))
 (let (($x17503 (bvult %B (_ bv12 12))))
 (let (($x3881 (=> $x10211 (and (and (distinct %A (_ bv0 12)) true) (= (bvand %A (bvsub %A (_ bv1 12))) (_ bv0 12))))))
 (let (($x7540 (or (and (distinct %X (_ bv2048 12)) true) (and (distinct (bvlshr %A %B) (_ bv4095 12)) true))))
 (let ((?x15395 (bvlshr %A %B)))
 (let (($x4844 (and (distinct ?x15395 (_ bv0 12)) true)))
 (and $x17503 $x4844 $x7540 $x3881 $x17503 $x10211 (= u_%Y (_ bv1 8)) (not (= (bvshl ?x15395 %B) %A))))))))))
(check-sat)
